
Gurobi 9.5.0 (linux64) logging started Tue Nov  7 13:09:47 2023

Set parameter LogFile to value "/lustre1/scratch/348/vsc34888/JointResearch/05.Models/06.Benchmarking/D.Representative_days_based_on_RES_and_Demand/3-bus_ByStages_nc60/openStarNet_3-bus_ByStages_nc60.log"
Set parameter Method to value 2
Set parameter MIPFocus to value 1
Set parameter Presolve to value 2
Set parameter RINS to value 100
Set parameter MIPGap to value 0.01
Set parameter Threads to value 36
Set parameter TimeLimit to value 604800
Set parameter IterationLimit to value 760000000
Gurobi Optimizer version 9.5.0 build v9.5.0rc5 (linux64)
Thread count: 36 physical cores, 36 logical processors, using up to 36 threads
Optimize a model with 4233 rows, 1873 columns and 11564 nonzeros
Model fingerprint: 0x108edcfb
Variable types: 1864 continuous, 9 integer (9 binary)
Coefficient statistics:
  Matrix range     [2e-03, 2e+05]
  Objective range  [1e+00, 1e+00]
  Bounds range     [6e-06, 2e+00]
  RHS range        [6e-06, 1e+00]
Presolve removed 1713 rows and 514 columns
Presolve time: 0.01s
Presolved: 2520 rows, 1359 columns, 8910 nonzeros
Variable types: 1350 continuous, 9 integer (9 binary)
Found heuristic solution: objective 51.7598163
Root relaxation presolved: 2520 rows, 1359 columns, 8910 nonzeros

Root barrier log...

Ordering time: 0.00s

Barrier statistics:
 Dense cols : 9
 AA' NZ     : 2.232e+04
 Factor NZ  : 5.146e+04 (roughly 2 MB of memory)
 Factor Ops : 1.153e+06 (less than 1 second per iteration)
 Threads    : 1

                  Objective                Residual
Iter       Primal          Dual         Primal    Dual     Compl     Time
   0   3.69990040e+05 -1.09212349e+08  1.51e+01 1.33e+02  3.42e+04     0s
   1   2.32448854e+04 -2.16805028e+06  9.93e-01 6.05e-10  1.10e+03     0s
   2   1.82964105e+03 -6.85722664e+05  2.90e-02 2.19e-09  1.50e+02     0s
   3   1.17189461e+03 -8.95625099e+03  3.81e-04 3.24e-10  2.08e+00     0s
   4   1.92367777e+02 -1.12210081e+03  7.69e-06 3.13e-11  2.69e-01     0s
   5   7.60381538e+01 -2.08497530e+02  5.39e-07 4.63e-12  5.83e-02     0s
   6   5.52927630e+01 -3.96632007e+01  9.36e-08 1.46e-12  1.95e-02     0s
   7   4.83534682e+01  1.45949735e+01  2.45e-08 5.36e-13  6.92e-03     0s
   8   4.39063298e+01  3.37526267e+01  4.62e-09 9.09e-13  2.08e-03     0s
   9   4.31921754e+01  3.72682645e+01  3.39e-09 9.09e-13  1.21e-03     0s
  10   4.27915141e+01  3.95408684e+01  2.38e-09 9.09e-13  6.66e-04     0s
  11   4.22277364e+01  4.06132783e+01  4.69e-10 9.09e-13  3.31e-04     0s
  12   4.22056479e+01  4.08101649e+01  4.37e-10 4.55e-13  2.86e-04     0s
  13   4.19587426e+01  4.13883197e+01  2.93e-10 4.55e-13  1.17e-04     0s
  14   4.19127485e+01  4.18615602e+01  4.86e-10 1.82e-12  1.05e-05     0s
  15   4.18996705e+01  4.18849192e+01  2.19e-10 9.09e-13  3.02e-06     0s
  16   4.18896775e+01  4.18870777e+01  4.03e-11 9.09e-13  5.33e-07     0s
  17   4.18875366e+01  4.18875365e+01  1.97e-10 9.09e-13  2.33e-11     0s

Barrier solved model in 17 iterations and 0.07 seconds (0.05 work units)
Optimal objective 4.18875366e+01


Root relaxation: objective 4.188754e+01, 245 iterations, 0.05 seconds (0.04 work units)

    Nodes    |    Current Node    |     Objective Bounds      |     Work
 Expl Unexpl |  Obj  Depth IntInf | Incumbent    BestBd   Gap | It/Node Time

     0     0   41.88754    0    3   51.75982   41.88754  19.1%     -    0s
H    0     0                      42.3353167   41.88754  1.06%     -    0s
     0     0   41.88754    0    1   42.33532   41.88754  1.06%     -    0s
     0     0   41.88754    0    3   42.33532   41.88754  1.06%     -    0s
H    0     0                      42.0905122   41.88754  0.48%     -    0s

Cutting planes:
  Cover: 1
  MIR: 64

Explored 1 nodes (632 simplex iterations) in 0.20 seconds (0.11 work units)
Thread count was 36 (of 36 available processors)

Solution count 3: 42.0905 42.3353 51.7598 

Optimal solution found (tolerance 1.00e-02)
Best objective 4.209051224946e+01, best bound 4.188753653642e+01, gap 0.4822%

Gurobi 9.5.0 (linux64) logging started Tue Nov  7 13:09:47 2023

Set parameter LogFile to value "/lustre1/scratch/348/vsc34888/JointResearch/05.Models/06.Benchmarking/D.Representative_days_based_on_RES_and_Demand/3-bus_ByStages_nc60/openStarNet_3-bus_ByStages_nc60.log"
Set parameter Method to value 2
Set parameter MIPFocus to value 1
Set parameter Presolve to value 2
Set parameter RINS to value 100
Set parameter MIPGap to value 0.01
Set parameter Threads to value 36
Set parameter TimeLimit to value 604800
Set parameter IterationLimit to value 760000000
No parameters matching 'relax_integrality' found
Gurobi Optimizer version 9.5.0 build v9.5.0rc5 (linux64)
Thread count: 36 physical cores, 36 logical processors, using up to 36 threads
Optimize a model with 4233 rows, 1864 columns and 9395 nonzeros
Model fingerprint: 0xe2a24128
Coefficient statistics:
  Matrix range     [2e-03, 2e+05]
  Objective range  [1e+00, 1e+00]
  Bounds range     [6e-06, 2e+00]
  RHS range        [6e-06, 2e+00]
Presolve removed 3813 rows and 1054 columns
Presolve time: 0.00s
Presolved: 420 rows, 810 columns, 1590 nonzeros

Ordering time: 0.00s

Barrier statistics:
 AA' NZ     : 1.020e+03
 Factor NZ  : 1.680e+03 (roughly 1 MB of memory)
 Factor Ops : 8.400e+03 (less than 1 second per iteration)
 Threads    : 1

                  Objective                Residual
Iter       Primal          Dual         Primal    Dual     Compl     Time
   0   7.45877503e+05 -1.08671466e+08  3.49e+01 5.33e+02  1.01e+05     0s
   1   4.11207987e+04 -1.63522155e+06  2.31e+00 4.93e-12  2.71e+03     0s
   2   2.82736773e+03 -2.71149743e+05  3.65e-02 9.09e-12  1.89e+02     0s
   3   1.43072075e+03 -7.50719087e+03  5.79e-04 2.90e-12  5.54e+00     0s
   4   2.17561099e+02 -1.79427368e+03  7.62e-06 2.78e-12  1.24e+00     0s
   5   1.63709744e+02 -7.10502341e+02  3.17e-06 3.62e-12  5.40e-01     0s
   6   1.02011880e+02 -2.28227558e+02  1.22e-06 1.82e-12  2.04e-01     0s
   7   7.26611915e+01 -6.69446451e+01  5.64e-07 2.15e-12  8.62e-02     0s
   8   5.02863446e+01  7.39311395e+00  1.14e-07 7.82e-13  2.65e-02     0s
   9   4.34317593e+01  3.83256429e+01  1.24e-08 9.09e-13  3.15e-03     0s
  10   4.22840317e+01  4.12604926e+01  1.26e-09 9.09e-13  6.32e-04     0s
  11   4.21410783e+01  4.19604243e+01  3.09e-10 9.09e-13  1.12e-04     0s
  12   4.20913130e+01  4.20729291e+01  5.56e-10 4.55e-13  1.13e-05     0s
  13   4.20905409e+01  4.20903591e+01  1.61e-10 4.55e-13  1.12e-07     0s
  14   4.20905123e+01  4.20905122e+01  4.99e-11 1.82e-12  7.30e-12     0s

Barrier solved model in 14 iterations and 0.01 seconds (0.01 work units)
Optimal objective 4.20905123e+01

Crossover log...

       0 DPushes remaining with DInf 0.0000000e+00                 0s

      60 PPushes remaining with PInf 0.0000000e+00                 0s
       0 PPushes remaining with PInf 0.0000000e+00                 0s

  Push phase complete: Pinf 0.0000000e+00, Dinf 1.0490914e-13      0s

Iteration    Objective       Primal Inf.    Dual Inf.      Time
      63    4.2090512e+01   0.000000e+00   0.000000e+00      0s

Solved in 63 iterations and 0.01 seconds (0.01 work units)
Optimal objective  4.209051225e+01

Gurobi 9.5.0 (linux64) logging started Wed Nov 15 14:59:43 2023

Set parameter LogFile to value "/lustre1/scratch/348/vsc34888/JointResearch/05.Models/06.Benchmarking/D.Representative_days_based_on_RES_and_Demand/3-bus_ByStages_nc60/openStarNet_3-bus_ByStages_nc60.log"
Set parameter Method to value 2
Set parameter MIPFocus to value 1
Set parameter Presolve to value 2
Set parameter RINS to value 100
Set parameter MIPGap to value 0.01
Set parameter Threads to value 36
Set parameter TimeLimit to value 604800
Set parameter IterationLimit to value 760000000
Gurobi Optimizer version 9.5.0 build v9.5.0rc5 (linux64)
Thread count: 36 physical cores, 36 logical processors, using up to 36 threads
Optimize a model with 4311 rows, 1909 columns and 11957 nonzeros
Model fingerprint: 0xd4d78094
Variable types: 1900 continuous, 9 integer (9 binary)
Coefficient statistics:
  Matrix range     [1e-02, 1e+05]
  Objective range  [1e+00, 1e+00]
  Bounds range     [9e-06, 2e+00]
  RHS range        [9e-06, 1e+00]
Presolve removed 1749 rows and 525 columns
Presolve time: 0.01s
Presolved: 2562 rows, 1384 columns, 9061 nonzeros
Variable types: 1375 continuous, 9 integer (9 binary)
Found heuristic solution: objective 74.0602186
Root relaxation presolved: 2562 rows, 1384 columns, 9061 nonzeros

Root barrier log...

Ordering time: 0.00s

Barrier statistics:
 Dense cols : 9
 AA' NZ     : 2.269e+04
 Factor NZ  : 5.232e+04 (roughly 2 MB of memory)
 Factor Ops : 1.172e+06 (less than 1 second per iteration)
 Threads    : 1

                  Objective                Residual
Iter       Primal          Dual         Primal    Dual     Compl     Time
   0   3.78326386e+05 -4.74886162e+07  1.53e+01 8.46e+01  1.46e+04     0s
   1   2.44693289e+04 -9.43375371e+05  1.01e+00 1.56e-09  4.71e+02     0s
   2   2.44956018e+03 -2.98387216e+05  3.96e-02 1.08e-09  6.59e+01     0s
   3   1.04005715e+03 -6.40714825e+03  5.87e-04 1.64e-11  1.50e+00     0s
   4   1.88931635e+02 -7.49362293e+02  2.91e-05 2.70e-12  1.89e-01     0s
   5   9.98311832e+01 -7.84475804e+01  4.17e-06 4.55e-13  3.59e-02     0s
   6   7.37444263e+01  4.11216586e+01  1.49e-07 4.55e-13  6.57e-03     0s
   7   6.76528185e+01  5.98604035e+01  2.36e-08 4.55e-13  1.57e-03     0s
   8   6.68949736e+01  6.30192215e+01  1.72e-08 4.55e-13  7.81e-04     0s
   9   6.65255383e+01  6.47395244e+01  1.28e-08 4.55e-13  3.60e-04     0s
  10   6.59542421e+01  6.54741968e+01  2.56e-09 4.55e-13  9.67e-05     0s
  11   6.57440499e+01  6.56244530e+01  7.84e-10 4.55e-13  2.41e-05     0s
  12   6.56448558e+01  6.56375826e+01  9.86e-10 6.82e-13  1.47e-06     0s
  13   6.56384087e+01  6.56384078e+01  8.98e-11 4.55e-13  1.67e-10     0s
  14   6.56384079e+01  6.56384079e+01  2.51e-10 4.55e-13  1.67e-13     0s

Barrier solved model in 14 iterations and 0.06 seconds (0.04 work units)
Optimal objective 6.56384079e+01


Root relaxation: objective 6.563841e+01, 249 iterations, 0.04 seconds (0.03 work units)

    Nodes    |    Current Node    |     Objective Bounds      |     Work
 Expl Unexpl |  Obj  Depth IntInf | Incumbent    BestBd   Gap | It/Node Time

     0     0   65.63841    0    3   74.06022   65.63841  11.4%     -    0s
H    0     0                      65.8384703   65.63841  0.30%     -    0s

Explored 1 nodes (249 simplex iterations) in 0.07 seconds (0.06 work units)
Thread count was 36 (of 36 available processors)

Solution count 2: 65.8385 74.0602 

Optimal solution found (tolerance 1.00e-02)
Best objective 6.583847032918e+01, best bound 6.563840792711e+01, gap 0.3039%

Gurobi 9.5.0 (linux64) logging started Wed Nov 15 14:59:44 2023

Set parameter LogFile to value "/lustre1/scratch/348/vsc34888/JointResearch/05.Models/06.Benchmarking/D.Representative_days_based_on_RES_and_Demand/3-bus_ByStages_nc60/openStarNet_3-bus_ByStages_nc60.log"
Set parameter Method to value 2
Set parameter MIPFocus to value 1
Set parameter Presolve to value 2
Set parameter RINS to value 100
Set parameter MIPGap to value 0.01
Set parameter Threads to value 36
Set parameter TimeLimit to value 604800
Set parameter IterationLimit to value 760000000
No parameters matching 'relax_integrality' found
Gurobi Optimizer version 9.5.0 build v9.5.0rc5 (linux64)
Thread count: 36 physical cores, 36 logical processors, using up to 36 threads
Optimize a model with 4311 rows, 1900 columns and 9752 nonzeros
Model fingerprint: 0x3c31656a
Coefficient statistics:
  Matrix range     [1e-02, 1e+05]
  Objective range  [1e+00, 1e+00]
  Bounds range     [9e-06, 2e+00]
  RHS range        [9e-06, 1e+00]
Presolve removed 3884 rows and 1136 columns
Presolve time: 0.00s
Presolved: 427 rows, 764 columns, 1557 nonzeros

Ordering time: 0.00s

Barrier statistics:
 AA' NZ     : 1.037e+03
 Factor NZ  : 1.708e+03
 Factor Ops : 8.540e+03 (less than 1 second per iteration)
 Threads    : 1

                  Objective                Residual
Iter       Primal          Dual         Primal    Dual     Compl     Time
   0   4.51314620e+05 -4.09092536e+07  3.96e+01 2.09e+02  4.02e+04     0s
   1   1.41800832e+04 -6.83448412e+05  1.71e+00 1.82e-12  8.70e+02     0s
   2   1.38572303e+03 -7.27679560e+04  7.47e-03 4.32e-12  4.99e+01     0s
   3   5.50742485e+02 -2.25866686e+03  1.28e-04 1.07e-12  1.84e+00     0s
   4   1.77689154e+02 -6.05360361e+02  1.77e-06 1.72e-12  5.12e-01     0s
   5   1.27228669e+02 -2.46524258e+02  3.69e-07 8.08e-13  2.45e-01     0s
   6   8.73279438e+01 -4.83362826e+01  6.12e-08 4.55e-13  8.88e-02     0s
   7   7.32874222e+01  3.95457096e+01  1.64e-08 6.11e-13  2.21e-02     0s
   8   6.64928779e+01  5.78781825e+01  6.73e-10 2.39e-13  5.64e-03     0s
   9   6.58710815e+01  6.57275176e+01  2.16e-10 2.27e-13  9.40e-05     0s
  10   6.58387513e+01  6.58241426e+01  2.73e-10 4.55e-13  9.56e-06     0s
  11   6.58385081e+01  6.58381680e+01  6.74e-10 4.55e-13  2.23e-07     0s
  12   6.58384703e+01  6.58384703e+01  7.29e-11 4.55e-13  2.16e-11     0s

Barrier solved model in 12 iterations and 0.01 seconds (0.01 work units)
Optimal objective 6.58384703e+01

Crossover log...

       2 DPushes remaining with DInf 0.0000000e+00                 0s
       0 DPushes remaining with DInf 0.0000000e+00                 0s

      61 PPushes remaining with PInf 0.0000000e+00                 0s
       0 PPushes remaining with PInf 0.0000000e+00                 0s

  Push phase complete: Pinf 0.0000000e+00, Dinf 9.3480779e-14      0s

Iteration    Objective       Primal Inf.    Dual Inf.      Time
      66    6.5838470e+01   0.000000e+00   0.000000e+00      0s

Solved in 66 iterations and 0.01 seconds (0.01 work units)
Optimal objective  6.583847033e+01
